Route #1: 63 44 50 53 31 18
Route #2: 2 27 42 47 8 32 9 10 4
Route #3: 19 51 62 48 30 34
Route #4: 33 38 11 13 61 49 36 16 25
Route #5: 55 22 28 39 35 41
Route #6: 12 14 57 17 29 56 23 60 5
Route #7: 20 37 6 15 52
Route #8: 24 26 40 43 64 3 58
Route #9: 45 46 54 7 59 21
cost 1000
